6009 5648 5311 5051 4891 4741 4559 4340 4083 3998 3807 3705 3493 3436 3313 3186 3079 2912 2869 2787 2718 2620 2550 2491 2449 2412 2382 2339 2288 2266 2258 2219 2199 2168 2126 2112 2089 2076 2081 2054 2036 2028 1996 1976 1964 1939 1934 1974 1923 1915 1905 1912 1905 1929 1897 1877 1866 1840 1840 1830 1824 1846 1819 1799 1778 1766 1763 1759 1747 1738 1718 1713 1707 1699 1693 1688 1678 1672 1663 1657 1654 1652 1651 1648 1637 1630 1626 1616 1606 1600 1586 1580 1566 1566 1566 1566 1566 1553 1552 1540 1536 1524 1524 1524 1522 1522 1522 1512 1510 1503 1501 1499 1499 1497 1497 1496 1492 1492 1489 1485 1485 1485 1485 1485 1485 1485 1485 1485 1485 1485 1485 1485 1483 1483 1483 1483 1483 1483 1483 1483 1483 1483 1479 1479 1479 1479 1478 1478 1478 1478 1478 1478 1478 1478 1478 1472 1472 1472 1472 1472 1472 1472 1465 1464 1464 1464 1464 1464 1464 1456 1456 1456 1456 1456 1456 1456 1456 1456 1456 1456 1456 1456 1455 1455 1455 1455 1455 1451 1451 1451 1451 1451 1451 1451 1451 1451 1451 1451 1451 1451 1451 1451 1451 1451 1451 1451 1406 1406 1404 1404 1401 1395 1381 1381 1381 1381 1381 1381 1381 1381 1381 1381 1381 1381 1381 1381 1381 1381 1381 1381 1381 1381 1381 1381 1381 1381 1381 1381 1381 1381 1381 1381 1381 1381 1381 1381 1381 1381 1381 1381 1381 1381 1381 1381 1381 1381 1381 1381 1381 1381 1381 1381 1381 1381 1381 1381 1381 1381 1381 1381 1381 1381 1381 1381 1381 1381 1381 1381 1381 1381 1381 1381 1381 1381 1381 1381 1381 1381 1381 1381 1381 1381 1381 1381 1381 1381 1381 1381 1381 1381 1381 1381 1381 1381 1381 1381 1381 1381 1381 1381 1381 1381 1381 1381 1381 1381 1381 1381 1381 1381 1381 1381 1381 1381 1381 1381 1381 1381 1381 1381 1381 1381 1381 1381 1381 1381 1381 1381 1381 1381 1381 1381 1381 1381 1381 1381 1381 1381 1381 1381 1381 1381 1381 1381 1381 1381 1381 1381 1381 1381 1381 1381 1381 1381 1381 1381 1381 1381 1381 1381 1381 1381 1381 1381 1381 1381 1381 1381 1381 1381 1381 1381 1381 1381 1381 1381 1381 1381 1381 1381 1381 1381 1381 1381 1381 1381 1381 1381 1381 1381 1381 1381 1381 1381 1381 1381 1381 1381 1381 1381 1381 1381 1381 1381 1381 1381 1381 1381 1381 1381 1381 1381 1381 1381 1381 1381 1381 1381 1381 1381 1381 1381 1381 1381 1381 1381 1381 1381 1381 1381 1381 1381 1381 1381 1381 1381 1381 1381 1381 1381 1381 1381 1381 1381 1381 1381 1381 1381 1381 1381 1381 1381 1381 1381 1381 1381 1381 1381 1381 1381 1381 1381 1381 1381 1381 1381 1381 1381 1381 1381 1381 1381 1381 1381 1381 1381 1381 1381 1381 1381 1381 1381 1381 1381 1381 1381 1381 1381 1381 1381 1381 1381 1381 1381 1381 1381 1381 1381 1381 1381 1381 1381 1381 1381 1381 1381 1381 1381 1381 1381 1381 1381 1381 1381 1381 1381 1381 1381 1381 1381 1381 1381 1381 1381 1381 1381 1381 1381 1381 1381 1381 1381 1381 1381 1381 1381 1381 1381 1381 1381 1381 1381 1381 1381 1381 1381 1381 1381 1381 1381 1381 1381 1381 1381 1381 1381 1381 1381 1381 1381 1381 1381 1381 1381 1381 1381 1381 1381 1381 1381 1381 1381 1381 1381 1381 1381 1381 1381 1381 1381 1381 1381 1381 1381 1381 1381 1381 1381 1381 1381 1381 1381 1381 1381 1381 1381 1381 1381 1381 1381 1381 1381 1381 1381 1381 1381 1381 1381 1381 1381 1381 1381 1381 1381 1381 1381 1381 1381 1381 1381 1381 1381 1381 1381 1381 1381 1381 1381 1381 1381 1381 1381 1381 1381 1381 1381 1381 1381 1381 1381 1381 1381 1381 1381 1381 1381 1381 1381 1381 1381 1381 1381 1381 1381 1381 1381 1381 1381 1381 1381 1381 1381 1381 1381 1381 1381 1381 1381 1381 1381 1381 1381 1381 1381 1381 1381 1381 1381 1381 1381 1381 1381 1381 1381 1381 1381 1381 1381 1381 1381 1381 1381 1381 1381 1381 1381 1381 1381 1381 1381 1381 1381 1381 
4009 3704 3367 3057 2912 2744 2559 2340 2085 2005 1831 1712 1496 1436 1316 1205 1091 912 879 787 718 620 553 491 452 412 382 352 312 295 276 250 228 204 171 142 119 115 100 80 72 46 32 21 17 17 14 11 8 5 5 3 3 1 1 1 1 1 1 1 1 0 0 0 0 0 0 0 0 0 0 0 0 0 0 0 0 0 0 0 0 0 0 0 0 0 0 0 0 0 0 0 0 0 0 0 0 0 0 0 0 0 0 0 0 0 0 0 0 0 0 0 0 0 0 0 0 0 0 0 0 0 0 0 0 0 0 0 0 0 0 0 0 0 0 0 0 0 0 0 0 0 0 0 0 0 0 0 0 0 0 0 0 0 0 0 0 0 0 0 0 0 0 0 0 0 0 0 0 0 0 0 0 0 0 0 0 0 0 0 0 0 0 0 0 0 0 0 0 0 0 0 0 0 0 0 0 0 0 0 0 0 0 0 0 0 0 0 0 0 0 0 0 0 0 0 0 0 0 0 0 0 0 0 0 0 0 0 0 0 0 0 0 0 0 0 0 0 0 0 0 0 0 0 0 0 0 0 0 0 0 0 0 0 0 0 0 0 0 0 0 0 0 0 0 0 0 0 0 0 0 0 0 0 0 0 0 0 0 0 0 0 0 0 0 0 0 0 0 0 0 0 0 0 0 0 0 0 0 0 0 0 0 0 0 0 0 0 0 0 0 0 0 0 0 0 0 0 0 0 0 0 0 0 0 0 0 0 0 0 0 0 0 0 0 0 0 0 0 0 0 0 0 0 0 0 0 0 0 0 0 0 0 0 0 0 0 0 0 0 0 0 0 0 0 0 0 0 0 0 0 0 0 0 0 0 0 0 0 0 0 0 0 0 0 0 0 0 0 0 0 0 0 0 0 0 0 0 0 0 0 0 0 0 0 0 0 0 0 0 0 0 0 0 0 0 0 0 0 0 0 0 0 0 0 0 0 0 0 0 0 0 0 0 0 0 0 0 0 0 0 0 0 0 0 0 0 0 0 0 0 0 0 0 0 0 0 0 0 0 0 0 0 0 0 0 0 0 0 0 0 0 0 0 0 0 0 0 0 0 0 0 0 0 0 0 0 0 0 0 0 0 0 0 0 0 0 0 0 0 0 0 0 0 0 0 0 0 0 0 0 0 0 0 0 0 0 0 0 0 0 0 0 0 0 0 0 0 0 0 0 0 0 0 0 0 0 0 0 0 0 0 0 0 0 0 0 0 0 0 0 0 0 0 0 0 0 0 0 0 0 0 0 0 0 0 0 0 0 0 0 0 0 0 0 0 0 0 0 0 0 0 0 0 0 0 0 0 0 0 0 0 0 0 0 0 0 0 0 0 0 0 0 0 0 0 0 0 0 0 0 0 0 0 0 0 0 0 0 0 0 0 0 0 0 0 0 0 0 0 0 0 0 0 0 0 0 0 0 0 0 0 0 0 0 0 0 0 0 0 0 0 0 0 0 0 0 0 0 0 0 0 0 0 0 0 0 0 0 0 0 0 0 0 0 0 0 0 0 0 0 0 0 0 0 0 0 0 0 0 0 0 0 0 0 0 0 0 0 0 0 0 0 0 0 0 0 0 0 0 0 0 0 